
  22    4
  10   10   10   10

   0   0   0   0   0   8 2 3 4 5 6 7 8 9 
   7  10  10  10  10   7 20 19 18 17 16 15 14 
  10  10  10  10  10   6 21 18 17 16 15 13 
   1  10  10  10  10   6 21 18 17 16 14 12 
   8  10  10  10  10   3 18 11 10 
   9  10  10  10  10   4 17 16 13 12 
   9  10  10  10  10   3 18 17 10 
   3  10  10  10  10   4 20 16 14 12 
   1  10  10  10  10   2 19 10 
   1  10  10  10  10   3 16 15 14 
   3  10  10  10  10   2 17 14 
   8  10  10  10  10   1 15 
   2  10  10  10  10   1 14 
  10  10  10  10  10   1 22
   4  10  10  10  10   1 22
  10  10  10  10  10   1 22
   9  10  10  10  10   1 22
  10  10  10  10  10   1 22
   3  10  10  10  10   1 22
   1  10  10  10  10   1 22
   1  10  10  10  10   1 22
   0   0   0   0   0   0 
